p cnf 200 1110
-101 -4 0
-101 100 0
-101 -5 0
-101 42 0
-101 29 0
-101 93 0
-101 -73 0
-101 15 0
-101 19 0
-101 2 0
101 4 -100 5 -42 -29 -93 73 -15 -19 -2 0
-102 -56 0
-102 -36 0
-102 -85 0
-102 -42 0
-102 -59 0
-102 18 0
-102 82 0
-102 -45 0
-102 17 0
-102 49 0
102 56 36 85 42 59 -18 -82 45 -17 -49 0
-103 40 0
-103 48 0
-103 -10 0
-103 -78 0
-103 -63 0
-103 33 0
-103 2 0
-103 28 0
-103 -77 0
-103 -73 0
103 -40 -48 10 78 63 -33 -2 -28 77 73 0
-104 -90 0
-104 -12 0
-104 16 0
-104 86 0
-104 3 0
-104 -79 0
-104 -53 0
-104 44 0
-104 -87 0
-104 8 0
104 90 12 -16 -86 -3 79 53 -44 87 -8 0
-105 16 0
-105 6 0
-105 53 0
-105 24 0
-105 -19 0
-105 -20 0
-105 94 0
-105 72 0
-105 50 0
-105 -15 0
105 -16 -6 -53 -24 19 20 -94 -72 -50 15 0
-106 20 0
-106 31 0
-106 -10 0
-106 -50 0
-106 24 0
-106 -43 0
-106 60 0
-106 -81 0
-106 5 0
-106 30 0
106 -20 -31 10 50 -24 43 -60 81 -5 -30 0
-107 48 0
-107 -94 0
-107 -88 0
-107 46 0
-107 -93 0
-107 -25 0
-107 76 0
-107 -39 0
-107 -17 0
-107 -61 0
107 -48 94 88 -46 93 25 -76 39 17 61 0
-108 72 0
-108 -21 0
-108 -70 0
-108 87 0
-108 -86 0
-108 96 0
-108 45 0
-108 -79 0
-108 -12 0
-108 -26 0
108 -72 21 70 -87 86 -96 -45 79 12 26 0
-109 27 0
-109 -64 0
-109 18 0
-109 81 0
-109 -12 0
-109 70 0
-109 -45 0
-109 43 0
-109 6 0
-109 -31 0
109 -27 64 -18 -81 12 -70 45 -43 -6 31 0
-110 -7 0
-110 -64 0
-110 -57 0
-110 52 0
-110 85 0
-110 -48 0
-110 -62 0
-110 -59 0
-110 -75 0
-110 74 0
110 7 64 57 -52 -85 48 62 59 75 -74 0
101 102 103 104 105 106 107 108 109 110 0
-111 -94 0
-111 13 0
-111 -18 0
-111 -69 0
-111 19 0
-111 90 0
-111 20 0
-111 91 0
-111 1 0
-111 17 0
111 94 -13 18 69 -19 -90 -20 -91 -1 -17 0
-112 12 0
-112 -89 0
-112 81 0
-112 73 0
-112 17 0
-112 47 0
-112 15 0
-112 -3 0
-112 -52 0
-112 -54 0
112 -12 89 -81 -73 -17 -47 -15 3 52 54 0
-113 45 0
-113 91 0
-113 35 0
-113 94 0
-113 15 0
-113 -48 0
-113 92 0
-113 -39 0
-113 -6 0
-113 -43 0
113 -45 -91 -35 -94 -15 48 -92 39 6 43 0
-114 -89 0
-114 37 0
-114 -7 0
-114 -16 0
-114 75 0
-114 -65 0
-114 -59 0
-114 -49 0
-114 -81 0
-114 -84 0
114 89 -37 7 16 -75 65 59 49 81 84 0
-115 -6 0
-115 -80 0
-115 -35 0
-115 -45 0
-115 90 0
-115 58 0
-115 -46 0
-115 -12 0
-115 14 0
-115 52 0
115 6 80 35 45 -90 -58 46 12 -14 -52 0
-116 -100 0
-116 19 0
-116 -25 0
-116 36 0
-116 93 0
-116 32 0
-116 -14 0
-116 82 0
-116 -99 0
-116 38 0
116 100 -19 25 -36 -93 -32 14 -82 99 -38 0
-117 64 0
-117 28 0
-117 -3 0
-117 47 0
-117 -93 0
-117 8 0
-117 66 0
-117 70 0
-117 -24 0
-117 42 0
117 -64 -28 3 -47 93 -8 -66 -70 24 -42 0
-118 -88 0
-118 -80 0
-118 -24 0
-118 -32 0
-118 62 0
-118 96 0
-118 -40 0
-118 -21 0
-118 -29 0
-118 20 0
118 88 80 24 32 -62 -96 40 21 29 -20 0
-119 -2 0
-119 -39 0
-119 -19 0
-119 47 0
-119 30 0
-119 45 0
-119 -74 0
-119 38 0
-119 99 0
-119 29 0
119 2 39 19 -47 -30 -45 74 -38 -99 -29 0
-120 -88 0
-120 -1 0
-120 -6 0
-120 -11 0
-120 51 0
-120 -18 0
-120 83 0
-120 -73 0
-120 32 0
-120 -97 0
120 88 1 6 11 -51 18 -83 73 -32 97 0
111 112 113 114 115 116 117 118 119 120 0
-121 -67 0
-121 97 0
-121 -18 0
-121 -10 0
-121 69 0
-121 91 0
-121 -90 0
-121 77 0
-121 88 0
-121 -2 0
121 67 -97 18 10 -69 -91 90 -77 -88 2 0
-122 89 0
-122 -72 0
-122 59 0
-122 29 0
-122 -50 0
-122 40 0
-122 -76 0
-122 -87 0
-122 53 0
-122 -97 0
122 -89 72 -59 -29 50 -40 76 87 -53 97 0
-123 22 0
-123 -84 0
-123 -70 0
-123 97 0
-123 -69 0
-123 -47 0
-123 -73 0
-123 -61 0
-123 -85 0
-123 -95 0
123 -22 84 70 -97 69 47 73 61 85 95 0
-124 21 0
-124 -5 0
-124 -60 0
-124 -80 0
-124 -66 0
-124 -98 0
-124 39 0
-124 -65 0
-124 53 0
-124 -47 0
124 -21 5 60 80 66 98 -39 65 -53 47 0
-125 -18 0
-125 21 0
-125 96 0
-125 -70 0
-125 -62 0
-125 36 0
-125 20 0
-125 78 0
-125 80 0
-125 48 0
125 18 -21 -96 70 62 -36 -20 -78 -80 -48 0
-126 9 0
-126 -89 0
-126 97 0
-126 -42 0
-126 38 0
-126 -53 0
-126 29 0
-126 25 0
-126 -23 0
-126 24 0
126 -9 89 -97 42 -38 53 -29 -25 23 -24 0
-127 -34 0
-127 7 0
-127 72 0
-127 41 0
-127 27 0
-127 -12 0
-127 2 0
-127 -65 0
-127 -59 0
-127 -48 0
127 34 -7 -72 -41 -27 12 -2 65 59 48 0
-128 -26 0
-128 61 0
-128 41 0
-128 -78 0
-128 70 0
-128 97 0
-128 -75 0
-128 60 0
-128 -77 0
-128 -88 0
128 26 -61 -41 78 -70 -97 75 -60 77 88 0
-129 -25 0
-129 31 0
-129 84 0
-129 8 0
-129 -37 0
-129 -46 0
-129 16 0
-129 28 0
-129 50 0
-129 24 0
129 25 -31 -84 -8 37 46 -16 -28 -50 -24 0
-130 -100 0
-130 78 0
-130 -6 0
-130 -20 0
-130 -59 0
-130 -48 0
-130 -38 0
-130 -46 0
-130 -79 0
-130 -64 0
130 100 -78 6 20 59 48 38 46 79 64 0
121 122 123 124 125 126 127 128 129 130 0
-131 -78 0
-131 -14 0
-131 34 0
-131 59 0
-131 -77 0
-131 56 0
-131 -93 0
-131 29 0
-131 -12 0
-131 -52 0
131 78 14 -34 -59 77 -56 93 -29 12 52 0
-132 -23 0
-132 -37 0
-132 47 0
-132 -44 0
-132 66 0
-132 35 0
-132 -55 0
-132 -45 0
-132 -60 0
-132 99 0
132 23 37 -47 44 -66 -35 55 45 60 -99 0
-133 54 0
-133 70 0
-133 47 0
-133 -26 0
-133 79 0
-133 -21 0
-133 -36 0
-133 -67 0
-133 -53 0
-133 -23 0
133 -54 -70 -47 26 -79 21 36 67 53 23 0
-134 -65 0
-134 40 0
-134 -86 0
-134 90 0
-134 -69 0
-134 -28 0
-134 34 0
-134 78 0
-134 -25 0
-134 55 0
134 65 -40 86 -90 69 28 -34 -78 25 -55 0
-135 78 0
-135 98 0
-135 -46 0
-135 63 0
-135 -19 0
-135 -54 0
-135 -8 0
-135 -55 0
-135 -74 0
-135 -52 0
135 -78 -98 46 -63 19 54 8 55 74 52 0
-136 90 0
-136 92 0
-136 -99 0
-136 80 0
-136 -28 0
-136 -77 0
-136 -49 0
-136 -79 0
-136 -94 0
-136 -73 0
136 -90 -92 99 -80 28 77 49 79 94 73 0
-137 73 0
-137 97 0
-137 100 0
-137 -5 0
-137 44 0
-137 72 0
-137 -90 0
-137 48 0
-137 79 0
-137 13 0
137 -73 -97 -100 5 -44 -72 90 -48 -79 -13 0
-138 -67 0
-138 21 0
-138 2 0
-138 86 0
-138 -20 0
-138 -96 0
-138 99 0
-138 37 0
-138 100 0
-138 -98 0
138 67 -21 -2 -86 20 96 -99 -37 -100 98 0
-139 -86 0
-139 -81 0
-139 62 0
-139 -64 0
-139 56 0
-139 -41 0
-139 -32 0
-139 -97 0
-139 -2 0
-139 -93 0
139 86 81 -62 64 -56 41 32 97 2 93 0
-140 -100 0
-140 -30 0
-140 -93 0
-140 -45 0
-140 34 0
-140 51 0
-140 -29 0
-140 -3 0
-140 -54 0
-140 4 0
140 100 30 93 45 -34 -51 29 3 54 -4 0
131 132 133 134 135 136 137 138 139 140 0
-141 -45 0
-141 44 0
-141 54 0
-141 79 0
-141 49 0
-141 -98 0
-141 -82 0
-141 85 0
-141 -83 0
-141 92 0
141 45 -44 -54 -79 -49 98 82 -85 83 -92 0
-142 -23 0
-142 -8 0
-142 25 0
-142 56 0
-142 3 0
-142 19 0
-142 70 0
-142 -30 0
-142 -64 0
-142 -67 0
142 23 8 -25 -56 -3 -19 -70 30 64 67 0
-143 69 0
-143 -72 0
-143 34 0
-143 39 0
-143 -1 0
-143 11 0
-143 98 0
-143 -61 0
-143 -40 0
-143 80 0
143 -69 72 -34 -39 1 -11 -98 61 40 -80 0
-144 -24 0
-144 -39 0
-144 93 0
-144 -34 0
-144 90 0
-144 84 0
-144 68 0
-144 13 0
-144 5 0
-144 66 0
144 24 39 -93 34 -90 -84 -68 -13 -5 -66 0
-145 -91 0
-145 -90 0
-145 80 0
-145 92 0
-145 36 0
-145 63 0
-145 69 0
-145 79 0
-145 -75 0
-145 -1 0
145 91 90 -80 -92 -36 -63 -69 -79 75 1 0
-146 -9 0
-146 -59 0
-146 -18 0
-146 21 0
-146 89 0
-146 56 0
-146 25 0
-146 61 0
-146 53 0
-146 -71 0
146 9 59 18 -21 -89 -56 -25 -61 -53 71 0
-147 -77 0
-147 6 0
-147 85 0
-147 -47 0
-147 22 0
-147 -78 0
-147 -64 0
-147 -94 0
-147 -48 0
-147 -49 0
147 77 -6 -85 47 -22 78 64 94 48 49 0
-148 -39 0
-148 -76 0
-148 -23 0
-148 25 0
-148 8 0
-148 68 0
-148 -52 0
-148 7 0
-148 -21 0
-148 -91 0
148 39 76 23 -25 -8 -68 52 -7 21 91 0
-149 20 0
-149 -9 0
-149 8 0
-149 -66 0
-149 60 0
-149 32 0
-149 -50 0
-149 -85 0
-149 -53 0
-149 -13 0
149 -20 9 -8 66 -60 -32 50 85 53 13 0
-150 90 0
-150 36 0
-150 -83 0
-150 9 0
-150 25 0
-150 -99 0
-150 -96 0
-150 7 0
-150 69 0
-150 19 0
150 -90 -36 83 -9 -25 99 96 -7 -69 -19 0
141 142 143 144 145 146 147 148 149 150 0
-151 -82 0
-151 -24 0
-151 77 0
-151 58 0
-151 40 0
-151 -29 0
-151 -36 0
-151 -52 0
-151 -3 0
-151 -50 0
151 82 24 -77 -58 -40 29 36 52 3 50 0
-152 45 0
-152 -57 0
-152 51 0
-152 68 0
-152 52 0
-152 -44 0
-152 73 0
-152 -69 0
-152 77 0
-152 -17 0
152 -45 57 -51 -68 -52 44 -73 69 -77 17 0
-153 -54 0
-153 25 0
-153 -68 0
-153 -77 0
-153 75 0
-153 95 0
-153 -55 0
-153 52 0
-153 -72 0
-153 11 0
153 54 -25 68 77 -75 -95 55 -52 72 -11 0
-154 -80 0
-154 2 0
-154 -3 0
-154 -23 0
-154 18 0
-154 -81 0
-154 -48 0
-154 64 0
-154 -73 0
-154 35 0
154 80 -2 3 23 -18 81 48 -64 73 -35 0
-155 -44 0
-155 92 0
-155 -64 0
-155 22 0
-155 -39 0
-155 12 0
-155 -35 0
-155 -81 0
-155 47 0
-155 -96 0
155 44 -92 64 -22 39 -12 35 81 -47 96 0
-156 -99 0
-156 57 0
-156 -44 0
-156 63 0
-156 19 0
-156 -23 0
-156 -20 0
-156 54 0
-156 7 0
-156 10 0
156 99 -57 44 -63 -19 23 20 -54 -7 -10 0
-157 90 0
-157 18 0
-157 -6 0
-157 -20 0
-157 49 0
-157 -24 0
-157 81 0
-157 19 0
-157 72 0
-157 -14 0
157 -90 -18 6 20 -49 24 -81 -19 -72 14 0
-158 80 0
-158 97 0
-158 -33 0
-158 -60 0
-158 5 0
-158 -42 0
-158 -3 0
-158 73 0
-158 13 0
-158 98 0
158 -80 -97 33 60 -5 42 3 -73 -13 -98 0
-159 61 0
-159 -58 0
-159 100 0
-159 -82 0
-159 11 0
-159 55 0
-159 -38 0
-159 53 0
-159 2 0
-159 -63 0
159 -61 58 -100 82 -11 -55 38 -53 -2 63 0
-160 25 0
-160 -45 0
-160 -21 0
-160 94 0
-160 19 0
-160 -9 0
-160 -76 0
-160 -26 0
-160 39 0
-160 -97 0
160 -25 45 21 -94 -19 9 76 26 -39 97 0
151 152 153 154 155 156 157 158 159 160 0
-161 63 0
-161 -86 0
-161 33 0
-161 36 0
-161 78 0
-161 -71 0
-161 95 0
-161 94 0
-161 -1 0
-161 48 0
161 -63 86 -33 -36 -78 71 -95 -94 1 -48 0
-162 95 0
-162 53 0
-162 -65 0
-162 -46 0
-162 71 0
-162 41 0
-162 -47 0
-162 39 0
-162 84 0
-162 23 0
162 -95 -53 65 46 -71 -41 47 -39 -84 -23 0
-163 -56 0
-163 21 0
-163 40 0
-163 39 0
-163 75 0
-163 43 0
-163 2 0
-163 -18 0
-163 16 0
-163 -61 0
163 56 -21 -40 -39 -75 -43 -2 18 -16 61 0
-164 -47 0
-164 3 0
-164 -9 0
-164 -7 0
-164 28 0
-164 -44 0
-164 -13 0
-164 22 0
-164 40 0
-164 91 0
164 47 -3 9 7 -28 44 13 -22 -40 -91 0
-165 95 0
-165 -8 0
-165 1 0
-165 3 0
-165 25 0
-165 99 0
-165 -12 0
-165 -10 0
-165 59 0
-165 -6 0
165 -95 8 -1 -3 -25 -99 12 10 -59 6 0
-166 34 0
-166 -98 0
-166 -11 0
-166 61 0
-166 51 0
-166 63 0
-166 -44 0
-166 3 0
-166 15 0
-166 -60 0
166 -34 98 11 -61 -51 -63 44 -3 -15 60 0
-167 65 0
-167 -79 0
-167 -25 0
-167 38 0
-167 -61 0
-167 13 0
-167 10 0
-167 -99 0
-167 45 0
-167 -91 0
167 -65 79 25 -38 61 -13 -10 99 -45 91 0
-168 100 0
-168 -37 0
-168 -99 0
-168 70 0
-168 53 0
-168 29 0
-168 -95 0
-168 77 0
-168 39 0
-168 -68 0
168 -100 37 99 -70 -53 -29 95 -77 -39 68 0
-169 -45 0
-169 63 0
-169 99 0
-169 -89 0
-169 31 0
-169 -86 0
-169 32 0
-169 -82 0
-169 -10 0
-169 -40 0
169 45 -63 -99 89 -31 86 -32 82 10 40 0
-170 23 0
-170 46 0
-170 58 0
-170 78 0
-170 22 0
-170 -29 0
-170 12 0
-170 -100 0
-170 14 0
-170 6 0
170 -23 -46 -58 -78 -22 29 -12 100 -14 -6 0
161 162 163 164 165 166 167 168 169 170 0
-171 -64 0
-171 -99 0
-171 32 0
-171 -46 0
-171 95 0
-171 -57 0
-171 10 0
-171 6 0
-171 21 0
-171 85 0
171 64 99 -32 46 -95 57 -10 -6 -21 -85 0
-172 81 0
-172 -96 0
-172 -100 0
-172 -52 0
-172 -26 0
-172 -37 0
-172 -42 0
-172 16 0
-172 63 0
-172 35 0
172 -81 96 100 52 26 37 42 -16 -63 -35 0
-173 89 0
-173 70 0
-173 -97 0
-173 -14 0
-173 -28 0
-173 -95 0
-173 -19 0
-173 67 0
-173 69 0
-173 -65 0
173 -89 -70 97 14 28 95 19 -67 -69 65 0
-174 -50 0
-174 -19 0
-174 57 0
-174 25 0
-174 56 0
-174 -48 0
-174 43 0
-174 36 0
-174 -91 0
-174 -69 0
174 50 19 -57 -25 -56 48 -43 -36 91 69 0
-175 70 0
-175 12 0
-175 97 0
-175 98 0
-175 -30 0
-175 17 0
-175 55 0
-175 40 0
-175 27 0
-175 26 0
175 -70 -12 -97 -98 30 -17 -55 -40 -27 -26 0
-176 -68 0
-176 91 0
-176 71 0
-176 63 0
-176 17 0
-176 -12 0
-176 -18 0
-176 23 0
-176 36 0
-176 -62 0
176 68 -91 -71 -63 -17 12 18 -23 -36 62 0
-177 -65 0
-177 61 0
-177 46 0
-177 -43 0
-177 22 0
-177 -96 0
-177 -83 0
-177 13 0
-177 -28 0
-177 -12 0
177 65 -61 -46 43 -22 96 83 -13 28 12 0
-178 78 0
-178 47 0
-178 68 0
-178 -96 0
-178 80 0
-178 3 0
-178 52 0
-178 60 0
-178 -39 0
-178 43 0
178 -78 -47 -68 96 -80 -3 -52 -60 39 -43 0
-179 -61 0
-179 -6 0
-179 28 0
-179 -94 0
-179 -14 0
-179 -78 0
-179 -80 0
-179 82 0
-179 -53 0
-179 -52 0
179 61 6 -28 94 14 78 80 -82 53 52 0
-180 -80 0
-180 9 0
-180 90 0
-180 -50 0
-180 -2 0
-180 -1 0
-180 52 0
-180 -40 0
-180 85 0
-180 18 0
180 80 -9 -90 50 2 1 -52 40 -85 -18 0
171 172 173 174 175 176 177 178 179 180 0
-181 -80 0
-181 14 0
-181 100 0
-181 -50 0
-181 -46 0
-181 71 0
-181 -52 0
-181 -27 0
-181 21 0
-181 79 0
181 80 -14 -100 50 46 -71 52 27 -21 -79 0
-182 12 0
-182 -74 0
-182 48 0
-182 -95 0
-182 -85 0
-182 -23 0
-182 89 0
-182 -36 0
-182 50 0
-182 18 0
182 -12 74 -48 95 85 23 -89 36 -50 -18 0
-183 -87 0
-183 9 0
-183 98 0
-183 -4 0
-183 -58 0
-183 -13 0
-183 -79 0
-183 -5 0
-183 80 0
-183 99 0
183 87 -9 -98 4 58 13 79 5 -80 -99 0
-184 -35 0
-184 89 0
-184 -32 0
-184 12 0
-184 95 0
-184 50 0
-184 -47 0
-184 5 0
-184 -22 0
-184 54 0
184 35 -89 32 -12 -95 -50 47 -5 22 -54 0
-185 -71 0
-185 75 0
-185 68 0
-185 -74 0
-185 -4 0
-185 8 0
-185 20 0
-185 7 0
-185 79 0
-185 -97 0
185 71 -75 -68 74 4 -8 -20 -7 -79 97 0
-186 -24 0
-186 73 0
-186 -77 0
-186 39 0
-186 -10 0
-186 -80 0
-186 -27 0
-186 12 0
-186 -46 0
-186 97 0
186 24 -73 77 -39 10 80 27 -12 46 -97 0
-187 21 0
-187 25 0
-187 -32 0
-187 4 0
-187 -8 0
-187 67 0
-187 81 0
-187 -65 0
-187 -61 0
-187 92 0
187 -21 -25 32 -4 8 -67 -81 65 61 -92 0
-188 -38 0
-188 -100 0
-188 -21 0
-188 -93 0
-188 78 0
-188 26 0
-188 -98 0
-188 91 0
-188 -58 0
-188 -99 0
188 38 100 21 93 -78 -26 98 -91 58 99 0
-189 86 0
-189 23 0
-189 25 0
-189 -28 0
-189 -84 0
-189 79 0
-189 47 0
-189 88 0
-189 7 0
-189 -49 0
189 -86 -23 -25 28 84 -79 -47 -88 -7 49 0
-190 43 0
-190 -81 0
-190 -86 0
-190 1 0
-190 -56 0
-190 41 0
-190 -61 0
-190 -96 0
-190 -97 0
-190 75 0
190 -43 81 86 -1 56 -41 61 96 97 -75 0
181 182 183 184 185 186 187 188 189 190 0
-191 -17 0
-191 32 0
-191 -33 0
-191 -73 0
-191 71 0
-191 74 0
-191 48 0
-191 -56 0
-191 80 0
-191 -84 0
191 17 -32 33 73 -71 -74 -48 56 -80 84 0
-192 -79 0
-192 33 0
-192 -65 0
-192 -93 0
-192 -80 0
-192 10 0
-192 3 0
-192 -49 0
-192 8 0
-192 -1 0
192 79 -33 65 93 80 -10 -3 49 -8 1 0
-193 10 0
-193 -1 0
-193 -38 0
-193 -33 0
-193 -40 0
-193 -87 0
-193 27 0
-193 -68 0
-193 -57 0
-193 5 0
193 -10 1 38 33 40 87 -27 68 57 -5 0
-194 100 0
-194 -27 0
-194 -39 0
-194 -63 0
-194 -41 0
-194 -83 0
-194 33 0
-194 -7 0
-194 -37 0
-194 -55 0
194 -100 27 39 63 41 83 -33 7 37 55 0
-195 -77 0
-195 -79 0
-195 65 0
-195 53 0
-195 -87 0
-195 42 0
-195 -48 0
-195 24 0
-195 -93 0
-195 -88 0
195 77 79 -65 -53 87 -42 48 -24 93 88 0
-196 -66 0
-196 77 0
-196 -22 0
-196 -33 0
-196 27 0
-196 16 0
-196 45 0
-196 -74 0
-196 -6 0
-196 -53 0
196 66 -77 22 33 -27 -16 -45 74 6 53 0
-197 -98 0
-197 -17 0
-197 -32 0
-197 73 0
-197 37 0
-197 60 0
-197 -63 0
-197 44 0
-197 -79 0
-197 78 0
197 98 17 32 -73 -37 -60 63 -44 79 -78 0
-198 6 0
-198 -30 0
-198 -74 0
-198 -98 0
-198 5 0
-198 -76 0
-198 38 0
-198 -65 0
-198 -3 0
-198 -18 0
198 -6 30 74 98 -5 76 -38 65 3 18 0
-199 23 0
-199 1 0
-199 98 0
-199 -28 0
-199 -7 0
-199 -30 0
-199 38 0
-199 -3 0
-199 47 0
-199 67 0
199 -23 -1 -98 28 7 30 -38 3 -47 -67 0
-200 -31 0
-200 6 0
-200 -83 0
-200 63 0
-200 -30 0
-200 67 0
-200 -32 0
-200 41 0
-200 -21 0
-200 -93 0
200 31 -6 83 -63 30 -67 32 -41 21 93 0
191 192 193 194 195 196 197 198 199 200 0
